##############################################################################
#                                                                            #
# C-H-N-O          # H3[C3N3O3]                                    # 1100044 #
#                                                                            #
##############################################################################
#                                                                            #
#                           Pearson's Crystal Data                           #
#      Crystal Structure Database for Inorganic Compounds (on DVD)           #
#                              Release 2017/18                               #
#                  Editors: Pierre Villars and Karin Cenzual                 #
#                                                                            #
#   Copyright (c) ASM International & Material Phases Data System (MPDS),    #
# Switzerland & National Institute for Materials Science (NIMS), Japan, 2017 #
#                   All rights reserved. Version 2017.08                     #
#                                                                            #
#   This copy of Pearson's Crystal Data is licensed to:                      #
#   University of Alberta, Chemistry Department, 1-5 Installations License         #
#                                                                            #
##############################################################################

data_1100044
_audit_creation_date                     2017-12-04
_audit_creation_method
;
Pearson's Crystal Data browser
;
#_database_code_PCD                      1100044

# Entry summary

_chemical_formula_structural             'H~3~ [C~3~ N~3~ O~3~]'
_chemical_formula_sum                    'C H N O'
_chemical_name_mineral                   ?
_chemical_compound_source                ?
_chemical_name_structure_type            H~3~[C~3~N~3~O~3~],mS36,15
_chemical_formula_weight                 129.1

# Bibliographic data

_publ_section_title
;
Electron Density Distribution in Cyanuric Acid. I. An X-ray Diffraction Study at Low Temperature
;
_journal_coden_ASTM                      ACBCAR
_journal_name_full                       'Acta Crystallogr. B'
_journal_year                            1971
_journal_volume                          27
_journal_page_first                      134
_journal_page_last                       145
_journal_language                        English
loop_
 _publ_author_name
 _publ_author_address
'Verschoor G.C.'
;
Groningen National University
Laboratorium voor Anorganische Chemie
Groningen
Netherlands
;
'Keulen E.'
;
Groningen National University
Laboratorium voor Anorganische Chemie
Groningen
Netherlands
;

# Standardized crystallographic data

_cell_length_a                           7.9
_cell_length_b                           6.732
_cell_length_c                           9.0652
_cell_angle_alpha                        90
_cell_angle_beta                         89.295
_cell_angle_gamma                        90
_cell_volume                             482.08
_cell_formula_units_Z                    4
_space_group_IT_number                   15
_space_group_name_H-M_alt                'C 1 2/c 1'
loop_
 _space_group_symop_id
 _space_group_symop_operation_xyz
 1 'x, y, z'
 2 '-x, -y, -z'
 3 '-x, y, 1/2-z'
 4 'x, -y, 1/2+z'
 5 '1/2+x, 1/2+y, z'
 6 '1/2-x, 1/2-y, -z'
 7 '1/2-x, 1/2+y, 1/2-z'
 8 '1/2+x, 1/2-y, 1/2+z'
loop_
 _atom_type_symbol
 N
 C
 O
 H
loop_
 _atom_site_label
 _atom_site_type_symbol
 _atom_site_symmetry_multiplicity
 _atom_site_Wyckoff_symbol
 _atom_site_fract_x
 _atom_site_fract_y
 _atom_site_fract_z
 _atom_site_occupancy
 N1 N 8 f 0.0931 0.3107 0.1501 1
 C1 C 8 f 0.0987 0.1065 0.1471 1
 O1 O 8 f 0.1852 0.0153 0.0578 1
 N2 N 4 e 0 0.0116 0.25 1
 C2 C 4 e 0 0.4215 0.25 1
 O2 O 4 e 0 0.5999 0.25 1
 H1 H 8 f 0.159 0.384 0.086 1
 H2 H 4 e 0 0.879 0.25 1


_exptl_crystal_colour                    ?
_exptl_crystal_density_meas              ?
_exptl_crystal_density_diffrn            1.78
_cell_measurement_temperature            296
_cell_measurement_radiation              'X-rays, Mo K'
_cell_measurement_reflns_used            17
_diffrn_ambient_temperature              296
_diffrn_measurement_device               'Weissenberg photographs'
_diffrn_measurement_device_type          ?
_diffrn_radiation_type                   'X-rays, Cu K'
_diffrn_reflns_number                    ?
_exptl_absorpt_coefficient_mu            ?
_exptl_absorpt_correction_type           ?
_computing_structure_solution            'starting values from the literature'
_refine_ls_number_parameters             ?
_refine_ls_number_reflns                 ?
_refine_ls_R_factor_gt                   0.045
_refine_ls_wR_factor_gt                  ?

# End of data set 1100044


