##############################################################################
#                                                                            #
# C-H-N-O          # H[C2N5O4] mon                                 # 1530114 #
#                                                                            #
##############################################################################
#                                                                            #
#                           Pearson's Crystal Data                           #
#      Crystal Structure Database for Inorganic Compounds (on DVD)           #
#                              Release 2017/18                               #
#                  Editors: Pierre Villars and Karin Cenzual                 #
#                                                                            #
#   Copyright (c) ASM International & Material Phases Data System (MPDS),    #
# Switzerland & National Institute for Materials Science (NIMS), Japan, 2017 #
#                   All rights reserved. Version 2017.08                     #
#                                                                            #
#   This copy of Pearson's Crystal Data is licensed to:                      #
#   University of Alberta, Chemistry Department, 1-5 Installations License         #
#                                                                            #
##############################################################################

data_1530114
_audit_creation_date                     2017-12-05
_audit_creation_method
;
Pearson's Crystal Data browser
;
#_database_code_PCD                      1530114

# Entry summary

_chemical_formula_structural             'H [C~2~ N~5~ O~4~]'
_chemical_formula_sum                    'C2 H N5 O4'
_chemical_name_mineral                   ?
_chemical_compound_source                ?
_chemical_name_structure_type            H[C~2~N~5~O~4~],mP44,14
_chemical_formula_weight                 159.1

# Bibliographic data

_publ_section_title
'Preparation and characterization of 3,5-dinitro-1H-1,2,4-triazole'           
_journal_coden_ASTM                      DTARAF
_journal_name_full                       'Dalton Trans.'
_journal_year                            2015
_journal_volume                          44
_journal_page_first                      7586
_journal_page_last                       7594
_journal_language                        English
loop_
 _publ_author_name
 _publ_author_address
'Haiges R.'
;
Southern California Los Angeles University
Loker Hydrocarbon Research Institute
Los Angeles
U.S.A. California
;
'B\'elanger Chabot G.'
;
Southern California Los Angeles University
Loker Hydrocarbon Research Institute
Los Angeles
U.S.A. California
;
'Kaplan S.M.'
;
Southern California Los Angeles University
Loker Hydrocarbon Research Institute
Los Angeles
U.S.A. California
;
'Christe K.O.'
;
Southern California Los Angeles University
Loker Hydrocarbon Research Institute
Los Angeles
U.S.A. California
;

# Standardized crystallographic data

_cell_length_a                           6.1585
_cell_length_b                           9.083
_cell_length_c                           9.858
_cell_angle_alpha                        90
_cell_angle_beta                         93.892
_cell_angle_gamma                        90
_cell_volume                             550.2
_cell_formula_units_Z                    4
_space_group_IT_number                   14
_space_group_name_H-M_alt                'P 1 21/c 1'
loop_
 _space_group_symop_id
 _space_group_symop_operation_xyz
 1 'x, y, z'
 2 '-x, -y, -z'
 3 '-x, 1/2+y, 1/2-z'
 4 'x, 1/2-y, 1/2+z'
loop_
 _atom_type_symbol
 N
 O
 C
 H
loop_
 _atom_site_label
 _atom_site_type_symbol
 _atom_site_symmetry_multiplicity
 _atom_site_Wyckoff_symbol
 _atom_site_fract_x
 _atom_site_fract_y
 _atom_site_fract_z
 _atom_site_occupancy
 N2 N 4 e 0.05954 0.17773 0.03145 1
 O1 O 4 e 0.06581 0.53052 0.15771 1
 C1 C 4 e 0.07206 0.14736 0.16238 1
 N4 N 4 e 0.09938 0.56548 0.27667 1
 N1 N 4 e 0.24746 0.25125 0.0203 1
 N3 N 4 e 0.2502 0.19417 0.23707 1
 O2 O 4 e 0.26453 0.53841 0.34885 1
 C2 C 4 e 0.35384 0.25912 0.1417 1
 N5 N 4 e 0.56135 0.33445 0.1627 1
 O4 O 4 e 0.63271 0.38799 0.06127 1
 O3 O 4 e 0.64682 0.33641 0.27825 1
 H1 H 4 e 0.28 0.2141 0.4445 1


_exptl_crystal_colour                    colorless
_exptl_crystal_density_meas              ?
_exptl_crystal_density_diffrn            1.92
_cell_measurement_temperature            140(2)
_cell_measurement_radiation              'X-rays, Mo Ka'
_cell_measurement_wavelength             0.71073
_cell_measurement_reflns_used            11484
_diffrn_ambient_temperature              140(2)
_diffrn_measurement_device               'automatic diffractometer'
_diffrn_measurement_device_type          'Bruker AXS SMART APEX'
_diffrn_radiation_type                   'X-rays, Mo Ka'
_diffrn_radiation_wavelength             0.71073
_diffrn_reflns_number                    11484
_diffrn_reflns_theta_min                 3.05
_diffrn_reflns_theta_max                 29.48
_exptl_absorpt_coefficient_mu            0.183
_exptl_absorpt_correction_type           empirical
_computing_structure_solution            'direct methods'
_refine_ls_number_parameters             103
_refine_ls_number_reflns                 1305
_refine_ls_R_factor_gt                   0.0327
_refine_ls_wR_factor_gt                  0.0831

# End of data set 1530114


