##############################################################################
#                                                                            #
# C-H-K-O          # HK[CO3] rt                                    # 1100213 #
#                                                                            #
##############################################################################
#                                                                            #
#                           Pearson's Crystal Data                           #
#      Crystal Structure Database for Inorganic Compounds (on DVD)           #
#                              Release 2017/18                               #
#                  Editors: Pierre Villars and Karin Cenzual                 #
#                                                                            #
#   Copyright (c) ASM International & Material Phases Data System (MPDS),    #
# Switzerland & National Institute for Materials Science (NIMS), Japan, 2017 #
#                   All rights reserved. Version 2017.08                     #
#                                                                            #
#   This copy of Pearson's Crystal Data is licensed to:                      #
#   University of Alberta, Chemistry Department, 1-5 Installations License         #
#                                                                            #
##############################################################################

data_1100213
_audit_creation_date                     2017-12-04
_audit_creation_method
;
Pearson's Crystal Data browser
;
#_database_code_PCD                      1100213

# Entry summary

_chemical_formula_structural             'H K [C O~3~]'
_chemical_formula_sum                    'C H K O3'
_chemical_name_mineral                   kalicinite
_chemical_compound_source                ?
_chemical_name_structure_type            HK[CO~3~],mP20,14
_chemical_formula_weight                 100.1

# Bibliographic data

_publ_section_title
;
Hydrogen-Bond Studies. LXXXIV. An X-ray Diffraction Study of the Structures of KHCO~3~ and KDCO~3~ at 298, 219 and 95 K
;
_journal_coden_ASTM                      ACBCAR
_journal_name_full                       'Acta Crystallogr. B'
_journal_year                            1974
_journal_volume                          30
_journal_page_first                      1155
_journal_page_last                       1166
_journal_language                        English
loop_
 _publ_author_name
 _publ_author_address
'Thomas J.O.'
;
Uppsala University
Institute of Chemistry
Uppsala
Sweden
;
'Tellgren R.'
;
Uppsala University
Institute of Chemistry
Uppsala
Sweden
;
'Olovsson I.'
;
Uppsala University
Institute of Chemistry
Uppsala
Sweden
;

# Standardized crystallographic data

_cell_length_a                           3.711
_cell_length_b                           5.6283
_cell_length_c                           15.113
_cell_angle_alpha                        90
_cell_angle_beta                         103.74
_cell_angle_gamma                        90
_cell_volume                             306.6
_cell_formula_units_Z                    4
_space_group_IT_number                   14
_space_group_name_H-M_alt                'P 1 21/c 1'
loop_
 _space_group_symop_id
 _space_group_symop_operation_xyz
 1 'x, y, z'
 2 '-x, -y, -z'
 3 '-x, 1/2+y, 1/2-z'
 4 'x, 1/2-y, 1/2+z'
loop_
 _atom_type_symbol
 K
 O
 C
 H
loop_
 _atom_site_label
 _atom_site_type_symbol
 _atom_site_symmetry_multiplicity
 _atom_site_Wyckoff_symbol
 _atom_site_fract_x
 _atom_site_fract_y
 _atom_site_fract_z
 _atom_site_occupancy
 K K 4 e 0.03533 0.52177 0.16533 1
 O1 O 4 e 0.29176 0.02915 0.19329 1
 C C 4 e 0.38297 0.015 0.11967 1
 O3 O 4 e 0.4297 0.21772 0.07761 1
 O2 O 4 e 0.56205 0.31998 0.41779 1
 H H 4 e 0.487 0.182 0.011 1


_exptl_crystal_colour                    ?
_exptl_crystal_density_meas              ?
_exptl_crystal_density_diffrn            2.17
_cell_measurement_temperature            298
_cell_measurement_radiation              'X-rays, Cu Ka1'
_cell_measurement_wavelength             1.54051
_pd_proc_wavelength                      1.54051
_cell_measurement_reflns_used            52
_diffrn_ambient_temperature              298
_diffrn_measurement_device               'automatic diffractometer'
_diffrn_measurement_device_type          'STOE-Philips 2-circle'
_diffrn_radiation_type                   'X-rays, Cu Ka'
_diffrn_reflns_number                    ?
_exptl_absorpt_coefficient_mu            13.42
_exptl_absorpt_correction_type           yes
_computing_structure_solution            'starting values from the literature'
_refine_ls_number_parameters             ?
_refine_ls_number_reflns                 540
_refine_ls_R_factor_gt                   0.037
_refine_ls_wR_factor_gt                  0.052

# End of data set 1100213


