##############################################################################
#                                                                            #
# C-H-K-O          # HK[CO3] rt                                    # 1501508 #
#                                                                            #
##############################################################################
#                                                                            #
#                           Pearson's Crystal Data                           #
#      Crystal Structure Database for Inorganic Compounds (on DVD)           #
#                              Release 2017/18                               #
#                  Editors: Pierre Villars and Karin Cenzual                 #
#                                                                            #
#   Copyright (c) ASM International & Material Phases Data System (MPDS),    #
# Switzerland & National Institute for Materials Science (NIMS), Japan, 2017 #
#                   All rights reserved. Version 2017.08                     #
#                                                                            #
#   This copy of Pearson's Crystal Data is licensed to:                      #
#   University of Alberta, Chemistry Department, 1-5 Installations License         #
#                                                                            #
##############################################################################

data_1501508
_audit_creation_date                     2017-12-05
_audit_creation_method
;
Pearson's Crystal Data browser
;
#_database_code_PCD                      1501508

# Entry summary

_chemical_formula_structural             'H K [C O~3~]'
_chemical_formula_sum                    'C H K O3'
_chemical_name_mineral                   kalicinite
_chemical_compound_source                ?
_chemical_name_structure_type            HK[CO~3~],mP20,14
_chemical_formula_weight                 100.1

# Bibliographic data

_publ_section_title
'The structure of the (HCO~3~)~2~^2-^ ion in potassium bicarbonate'           
_journal_coden_ASTM                      ACBCAR
_journal_name_full                       'Acta Crystallogr. B'
_journal_year                            1968
_journal_volume                          24
_journal_page_first                      478
_journal_page_last                       480
_journal_language                        English
loop_
 _publ_author_name
 _publ_author_address
'Pedersen B.F.'
;
Oslo University
Central Institute for Industrial Research
Oslo
Norway
;

# Standardized crystallographic data

_cell_length_a                           3.68
_cell_length_b                           5.51
_cell_length_c                           14.998
_cell_angle_alpha                        90
_cell_angle_beta                         103.866
_cell_angle_gamma                        90
_cell_volume                             295.2
_cell_formula_units_Z                    4
_space_group_IT_number                   14
_space_group_name_H-M_alt                'P 1 21/c 1'
loop_
 _space_group_symop_id
 _space_group_symop_operation_xyz
 1 'x, y, z'
 2 '-x, -y, -z'
 3 '-x, 1/2+y, 1/2-z'
 4 'x, 1/2-y, 1/2+z'
loop_
 _atom_type_symbol
 K
 O
 C
 H
loop_
 _atom_site_label
 _atom_site_type_symbol
 _atom_site_symmetry_multiplicity
 _atom_site_Wyckoff_symbol
 _atom_site_fract_x
 _atom_site_fract_y
 _atom_site_fract_z
 _atom_site_occupancy
 K K 4 e 0.034 0.525 0.167 1
 O1 O 4 e 0.298 0.03 0.194 1
 C C 4 e 0.398 0.017 0.119 1
 O3 O 4 e 0.437 0.219 0.076 1
 O2 O 4 e 0.551 0.321 0.418 1
 H H 4 e 0.438 0.187 0.013 1


_exptl_crystal_colour                    ?
_exptl_crystal_density_meas              ?
_exptl_crystal_density_diffrn            2.25
_cell_measurement_temperature            ?
_cell_measurement_radiation              ?
_cell_measurement_reflns_used            ?
_diffrn_ambient_temperature              ?
_diffrn_measurement_device               ?
_diffrn_measurement_device_type          ?
_diffrn_radiation_type                   ?
_diffrn_reflns_number                    ?
_exptl_absorpt_coefficient_mu            ?
_exptl_absorpt_correction_type           ?
_computing_structure_solution            ?
_refine_ls_number_parameters             ?
_refine_ls_number_reflns                 ?
_refine_ls_R_factor_gt                   ?
_refine_ls_wR_factor_gt                  ?

# End of data set 1501508


