##############################################################################
#                                                                            #
# C-H-K-O-S        # K2CS3[H2O]                                    # 1000172 #
#                                                                            #
##############################################################################
#                                                                            #
#                           Pearson's Crystal Data                           #
#      Crystal Structure Database for Inorganic Compounds (on DVD)           #
#                              Release 2017/18                               #
#                  Editors: Pierre Villars and Karin Cenzual                 #
#                                                                            #
#   Copyright (c) ASM International & Material Phases Data System (MPDS),    #
# Switzerland & National Institute for Materials Science (NIMS), Japan, 2017 #
#                   All rights reserved. Version 2017.08                     #
#                                                                            #
#   This copy of Pearson's Crystal Data is licensed to:                      #
#   University of Alberta, Chemistry Department, 1-5 Installations License         #
#                                                                            #
##############################################################################

data_1000172
_audit_creation_date                     2017-12-04
_audit_creation_method
;
Pearson's Crystal Data browser
;
#_database_code_PCD                      1000172

# Entry summary

_chemical_formula_structural             'K~2~ C S~3~ [H~2~ O]'
_chemical_formula_sum                    'C H2 K2 O S3'
_chemical_name_mineral                   ?
_chemical_compound_source                ?
_chemical_name_structure_type            K~2~CS~3~[H~2~O],mP28,14
_chemical_formula_weight                 204.4

# Bibliographic data

_publ_section_title
;
The crystal structure of potassium trithiocarbonate monohydrate, K~2~CS~3~.H~2~O
;
_journal_coden_ASTM                      ACBCAR
_journal_name_full                       'Acta Crystallogr. B'
_journal_year                            1970
_journal_volume                          26
_journal_page_first                      877
_journal_page_last                       881
_journal_language                        English
loop_
 _publ_author_name
 _publ_author_address
'Philippot E.'
;
Montpellier Languedoc University of Science and Technology
Montpellier
France
;
'Lindqvist O.'
;
Chalmers University of Technology
Department of Inorganic Chemistry
Gothenburg
Sweden
;

# Standardized crystallographic data

_cell_length_a                           6.418
_cell_length_b                           17.066
_cell_length_c                           8.8702
_cell_angle_alpha                        90
_cell_angle_beta                         130.66
_cell_angle_gamma                        90
_cell_volume                             737
_cell_formula_units_Z                    4
_space_group_IT_number                   14
_space_group_name_H-M_alt                'P 1 21/c 1'
loop_
 _space_group_symop_id
 _space_group_symop_operation_xyz
 1 'x, y, z'
 2 '-x, -y, -z'
 3 '-x, 1/2+y, 1/2-z'
 4 'x, 1/2-y, 1/2+z'
loop_
 _atom_type_symbol
 K
 S
 OH2
 C
loop_
 _atom_site_label
 _atom_site_type_symbol
 _atom_site_symmetry_multiplicity
 _atom_site_Wyckoff_symbol
 _atom_site_fract_x
 _atom_site_fract_y
 _atom_site_fract_z
 _atom_site_occupancy
 K2 K 4 e 0.0162 0.4601 0.2872 1
 K1 K 4 e 0.0206 0.6994 0.0867 1
 S2 S 4 e 0.0511 0.1353 0.1145 1
 O OH2 4 e 0.3497 0.3567 0.2936 1
 C C 4 e 0.3973 0.1217 0.306 1
 S3 S 4 e 0.5624 0.0459 0.2967 1
 S1 S 4 e 0.5718 0.3176 0.0079 1


_exptl_crystal_colour                    orange
_exptl_crystal_density_meas              1.82
_exptl_crystal_density_diffrn            1.84
_cell_measurement_temperature            ?
_cell_measurement_radiation              X-rays
_cell_measurement_reflns_used            ?
_diffrn_ambient_temperature              ?
_diffrn_measurement_device               'Weissenberg photographs'
_diffrn_measurement_device_type          ?
_diffrn_radiation_type                   'X-rays, Cu Ka'
_diffrn_radiation_wavelength             1.5418
_diffrn_reflns_number                    ?
_exptl_absorpt_coefficient_mu            17.8
_exptl_absorpt_correction_type           yes
_computing_structure_solution            'direct methods, Fourier synthesis'
_refine_ls_number_parameters             ?
_refine_ls_number_reflns                 1166
_refine_ls_R_factor_gt                   0.067
_refine_ls_wR_factor_gt                  ?

# End of data set 1000172


