##############################################################################
#                                                                            #
# C-H-K-Ni-O       # K2Ni[CO3]2[H2O]4                              # 1501755 #
#                                                                            #
##############################################################################
#                                                                            #
#                           Pearson's Crystal Data                           #
#      Crystal Structure Database for Inorganic Compounds (on DVD)           #
#                              Release 2017/18                               #
#                  Editors: Pierre Villars and Karin Cenzual                 #
#                                                                            #
#   Copyright (c) ASM International & Material Phases Data System (MPDS),    #
# Switzerland & National Institute for Materials Science (NIMS), Japan, 2017 #
#                   All rights reserved. Version 2017.08                     #
#                                                                            #
#   This copy of Pearson's Crystal Data is licensed to:                      #
#   University of Alberta, Chemistry Department, 1-5 Installations License         #
#                                                                            #
##############################################################################

data_1501755
_audit_creation_date                     2017-12-05
_audit_creation_method
;
Pearson's Crystal Data browser
;
#_database_code_PCD                      1501755

# Entry summary

_chemical_formula_structural             'K~2~ Ni [C O~3~]~2~ [H~2~ O]~4~'
_chemical_formula_sum                    'C2 H8 K2 Ni O10'
_chemical_name_mineral                   ?
_chemical_compound_source                ?
_chemical_name_structure_type            K~2~Mg[CO~3~]~2~[H~2~O]~4~,mP30,14
_chemical_formula_weight                 329.0

# Bibliographic data

_publ_section_title
;
Potassium trans-tetraaquadicarbonatonickelate(II), K~2~[Ni(CO~3~)~2~(H~2~O)~4~]
;
_journal_coden_ASTM                      ACSCEE
_journal_name_full                       'Acta Crystallogr. C'
_journal_year                            1994
_journal_volume                          50
_journal_page_first                      1422
_journal_page_last                       1424
_journal_language                        English
loop_
 _publ_author_name
 _publ_author_address
'Zheng Y.Q.'
;
Cologne (K\"oln) University
Institut f\"ur Anorganische Chemie
Cologne (K\"oln)
Germany
;
'Adam A.'
;
Cologne (K\"oln) University
Institut f\"ur Anorganische Chemie
Cologne (K\"oln)
Germany
;

# Standardized crystallographic data

_cell_length_a                           6.755
_cell_length_b                           6.156
_cell_length_c                           12.2406
_cell_angle_alpha                        90
_cell_angle_beta                         113.265
_cell_angle_gamma                        90
_cell_volume                             467.6
_cell_formula_units_Z                    2
_space_group_IT_number                   14
_space_group_name_H-M_alt                'P 1 21/c 1'
loop_
 _space_group_symop_id
 _space_group_symop_operation_xyz
 1 'x, y, z'
 2 '-x, -y, -z'
 3 '-x, 1/2+y, 1/2-z'
 4 'x, 1/2-y, 1/2+z'
loop_
 _atom_type_symbol
 OH2
 O
 K
 C
 Ni
loop_
 _atom_site_label
 _atom_site_type_symbol
 _atom_site_symmetry_multiplicity
 _atom_site_Wyckoff_symbol
 _atom_site_fract_x
 _atom_site_fract_y
 _atom_site_fract_z
 _atom_site_occupancy
 O4 OH2 4 e 0.1045 0.2223 0.407 1
 O1 O 4 e 0.1185 0.3109 0.1495 1
 K K 4 e 0.2328 0.6456 0.3153 1
 C C 4 e 0.2552 0.1526 0.1769 1
 O5 OH2 4 e 0.294 0.6645 0.0502 1
 O2 O 4 e 0.3131 0.0627 0.2786 1
 O3 O 4 e 0.3331 0.0857 0.1023 1
 Ni Ni 2 c 0 0 0.5 1


_exptl_crystal_colour                    green
_exptl_crystal_density_meas              2.314
_exptl_crystal_density_diffrn            2.34
_cell_measurement_temperature            293
_cell_measurement_radiation              'X-rays, Mo Ka'
_cell_measurement_wavelength             0.71069
_cell_measurement_reflns_used            25
_diffrn_ambient_temperature              293
_diffrn_measurement_device               'automatic diffractometer'
_diffrn_measurement_device_type          'Enraf-Nonius CAD4'
_diffrn_radiation_type                   'X-rays, Mo Ka'
_diffrn_radiation_wavelength             0.71069
_diffrn_reflns_number                    2964
_exptl_absorpt_coefficient_mu            3.011
_exptl_absorpt_correction_type           empirical
_computing_structure_solution            'Patterson and Fourier synthesis'
_refine_ls_number_parameters             86
_refine_ls_number_reflns                 970
_refine_ls_R_factor_gt                   0.053
_refine_ls_wR_factor_gt                  0.030

# End of data set 1501755


